language Essence 1.3

letting A be 2
letting T be 15
letting X be 6
letting Y be 6
letting Z be 3
letting building be
        [[0, 0, 0, 0, 0, 0; int(0..5)], [0, 0, 0, 1, 0, 0; int(0..5)], [0, 0, 1, 0, 0, 0; int(0..5)],
         [0, 1, 0, 1, 0, 0; int(0..5)], [0, 0, 1, 1, 0, 0; int(0..5)], [0, 0, 0, 0, 0, 0; int(0..5)];
             int(0..5)]
$ Visualisation for building
$ 0 0 0 0 0 0
$ 0 0 0 1 0 0
$ 0 0 1 0 0 0
$ 0 1 0 1 0 0
$ 0 0 1 1 0 0
$ 0 0 0 0 0 0

